c Random generated cnf formula, satisfiable: true
p cnf 10 50
6 7 -5 0
10 -7 9 0
5 -1 9 0
7 10 -9 0
2 9 4 0
9 -6 -4 0
-8 -3 10 0
9 7 2 0
3 4 -5 0
6 10 -5 0
6 7 -9 0
-9 -6 -3 0
-1 6 10 0
7 1 -8 0
-1 6 -9 0
2 3 10 0
-6 10 -9 0
9 6 -10 0
-4 5 9 0
8 5 -3 0
2 -3 -7 0
-1 2 -4 0
-5 1 -8 0
4 -8 -9 0
8 -6 7 0
8 -9 -3 0
-6 4 -2 0
7 -9 2 0
10 3 5 0
2 5 -9 0
-2 10 1 0
-6 -10 -3 0
-4 5 -7 0
6 10 1 0
-8 3 7 0
-5 1 -4 0
-10 6 -1 0
2 1 -10 0
4 1 2 0
9 10 -8 0
-3 -6 4 0
-7 1 -10 0
9 -10 1 0
3 7 -9 0
-3 10 -9 0
-9 5 -2 0
4 2 -3 0
2 6 -8 0
8 -9 -4 0
2 -5 -8 0
